File : Instances/p69
Used 68s
27052

0 0 1 1 0 0 0 1 0 0 1 0 0 0 0 0 0 1 0 1 1 1 0 0 0 1 1 1 0 0 
7 19 21 27 2 25 21 27 27 27 26 17 10 3 19 7 3 20 27 27 27 21 2 21 10 27 27 19 26 2 19 26 26 21 27 19 20 20 27 21 7 20 19 26 20 26 3 21 19 20 27 21 21 21 20 19 7 26 7 7 26 2 7 20 3 25 10 17 19 25 7 25 19 20 10 10 20 10 20 21 10 17 26 7 26 10 19 2 27 7 17 19 7 25 2 3 27 19 17 17 17 21 25 7 26 2 26 27 27 3 19 26 27 19 25 20 17 7 17 20 26 25 17 19 26 21 2 7 26 17 27 21 25 20 3 20 3 3 17 10 25 27 25 25 25 2 21 21 27 25 27 17 10 17 20 7 2 21 3 3 3 27 10 2 10 27 2 26 3 21 3 20 19 20 26 2 27 10 26 10 2 21 2 19 25 20 19 10 17 21 2 21 19 19 7 25 7 21 10 19 
